\ Equation counts
\     Total        E        G        L        N        X        C        B
\         0        0        0        0        0        0        0        0
\ 
\ Variable counts
\                  x        b        i      s1s      s2s       sc       si
\     Total     cont   binary  integer     sos1     sos2    scont     sint
\       120        0      120        0        0        0        0        0
\ 
\ Nonzero counts
\     Total    const       NL      DLL
\       120        0      120        0
\ 
Maximize
 obj: 100 b2 + 6 b3 + 71 b4 + 39 b5 - 94 b6 + 40 b7 - 55 b8 + 100 b9 + 96 b10 - 5 b11 - 61 b12 - 13 b13 
  + 78 b14 - 41 b15 + 68 b16 - 66 b17 - 37 b18 + 15 b19 + 76 b20 - 32 b21 + 21 b22 + 88 b23 + 16 b24 
  + 78 b25 - 61 b26 - 8 b27 - 74 b28 - 34 b29 - 67 b30 + 58 b31 - 77 b32 + 30 b33 + 73 b34 + 53 b35 + 34 b36 
  - 9 b37 + 21 b38 - 41 b39 - 84 b40 + 57 b41 + 39 b42 - 61 b43 - 14 b44 - 100 b45 + 42 b46 - 30 b47 
  + 38 b48 - 54 b49 + 41 b50 + 67 b51 - 70 b52 - 31 b53 - 34 b54 + 60 b55 - 20 b56 + 87 b57 + b58 + 92 b59 
  - 21 b60 - 64 b61 - 6 b62 + 43 b63 - 41 b64 + 28 b65 - 23 b66 - 47 b67 - 37 b68 - 86 b69 - 71 b70 - 68 b71 
  - 97 b72 - 20 b73 - 62 b74 + 63 b75 + 28 b76 + 92 b77 + 93 b78 + 69 b79 + 19 b80 + 6 b81 - 2 b82 - 63 b83 
  - 10 b84 + 25 b85 - 22 b86 + 41 b87 - 64 b88 - 33 b89 + 93 b90 + 84 b91 + 12 b92 + 20 b93 - 84 b94 
  - 70 b95 + 96 b96 - 28 b97 + 59 b98 - 51 b99 - 33 b100 + 85 b101 - 9 b102 + 76 b103 - 3 b104 - 88 b105 
  - 25 b106 + 27 b107 + 27 b108 - 44 b109 - 41 b110 - 68 b111 + 35 b112 - 29 b113 + 24 b114 + 94 b115 
  + 55 b116 + 90 b117 + 24 b118 + 31 b119 - 72 b120 + 43 b121 + [ 96 b2 * b3 - 4 b2 * b4 - 168 b2 * b8 
  + 176 b2 * b9 + 24 b2 * b16 + 164 b2 * b17 + 56 b2 * b20 + 56 b2 * b22 - 148 b2 * b29 - 108 b2 * b35 
  + 188 b2 * b36 - 64 b2 * b43 + 176 b2 * b48 + 160 b2 * b51 + 180 b2 * b55 + 64 b2 * b56 + 196 b2 * b58 
  - 108 b2 * b62 + 148 b2 * b69 - 136 b2 * b70 + 52 b2 * b72 + 132 b2 * b75 - 144 b2 * b80 - 76 b2 * b84 
  + 180 b2 * b85 + 128 b2 * b93 + 76 b2 * b101 - 136 b2 * b105 + 40 b2 * b106 - 128 b2 * b107 - 8 b2 * b110 
  - 12 b2 * b119 + 164 b2 * b120 - 64 b3 * b4 + 96 b3 * b5 - 4 b3 * b6 - 196 b3 * b7 - 92 b3 * b9 + 4 b3 * b12 
  - 188 b3 * b13 + 24 b3 * b17 - 4 b3 * b22 + 80 b3 * b28 + 144 b3 * b31 + 96 b3 * b33 - 108 b3 * b37 
  - 20 b3 * b38 - 152 b3 * b41 - 12 b3 * b45 - 184 b3 * b48 + 8 b3 * b49 - 20 b3 * b52 - 88 b3 * b55 
  + 68 b3 * b57 - 192 b3 * b58 - 120 b3 * b59 - 128 b3 * b61 + 152 b3 * b62 - 124 b3 * b70 + 200 b3 * b73 
  + 188 b3 * b90 - 56 b3 * b93 - 192 b3 * b104 - 196 b3 * b108 - 12 b3 * b113 + 128 b3 * b118 - 160 b3 * b121 
  + 200 b4 * b13 - 108 b4 * b15 - 20 b4 * b18 - 132 b4 * b19 + 176 b4 * b26 - 172 b4 * b30 - 156 b4 * b31 
  + 160 b4 * b34 - 8 b4 * b35 - 16 b4 * b36 - 64 b4 * b41 + 100 b4 * b43 + 188 b4 * b47 + 48 b4 * b48 
  - 96 b4 * b49 + 96 b4 * b50 + 12 b4 * b52 + 20 b4 * b54 - 200 b4 * b57 - 112 b4 * b59 + 12 b4 * b61 
  - 44 b4 * b62 - 80 b4 * b63 + 192 b4 * b64 + 128 b4 * b72 - 76 b4 * b74 - 132 b4 * b77 - 72 b4 * b84 
  - 16 b4 * b85 - 132 b4 * b92 + 172 b4 * b98 - 176 b4 * b104 - 32 b4 * b105 + 56 b4 * b107 + 144 b5 * b7 
  - 44 b5 * b13 + 176 b5 * b14 + 176 b5 * b18 - 200 b5 * b20 - 164 b5 * b25 + 156 b5 * b34 - 112 b5 * b36 
  + 100 b5 * b37 - 76 b5 * b39 + 72 b5 * b40 + 32 b5 * b45 + 28 b5 * b48 + 96 b5 * b51 + 128 b5 * b57 
  - 20 b5 * b62 + 200 b5 * b63 - 132 b5 * b66 + 180 b5 * b67 + 32 b5 * b68 - 152 b5 * b69 + 8 b5 * b71 
  + 56 b5 * b72 - 56 b5 * b77 - 112 b5 * b78 + 80 b5 * b84 + 80 b5 * b87 + 56 b5 * b89 - 108 b5 * b96 
  - 112 b5 * b97 - 200 b5 * b99 + 84 b5 * b103 + 132 b5 * b109 - 76 b5 * b110 + 128 b5 * b114 - 164 b5 * b118 
  + 156 b5 * b120 + 84 b5 * b121 - 128 b6 * b7 + 88 b6 * b9 + 148 b6 * b10 - 192 b6 * b17 - 172 b6 * b19 
  - 172 b6 * b20 + 100 b6 * b24 + 40 b6 * b32 - 56 b6 * b33 + 96 b6 * b34 + 100 b6 * b39 + 80 b6 * b40 
  + 104 b6 * b42 - 44 b6 * b44 - 184 b6 * b47 - 112 b6 * b52 + 36 b6 * b56 + 180 b6 * b60 - 124 b6 * b67 
  - 144 b6 * b68 + 88 b6 * b72 - 160 b6 * b73 - 128 b6 * b74 + 96 b6 * b76 - 108 b6 * b78 + 128 b6 * b96 
  + 72 b6 * b97 + 144 b6 * b100 - 92 b6 * b101 - 4 b6 * b102 + 92 b6 * b107 - 28 b6 * b109 - 164 b6 * b111 
  - 80 b6 * b113 - 164 b6 * b116 - 48 b6 * b117 - 148 b6 * b120 + 28 b7 * b8 + 56 b7 * b11 - 128 b7 * b13 
  - 88 b7 * b23 - 180 b7 * b24 + 196 b7 * b25 + 120 b7 * b27 - 56 b7 * b30 - 4 b7 * b31 - 172 b7 * b32 
  - 164 b7 * b36 + 96 b7 * b39 - 152 b7 * b40 - 60 b7 * b46 + 48 b7 * b48 + 40 b7 * b53 - 192 b7 * b62 
  - 164 b7 * b71 - 80 b7 * b74 - 32 b7 * b75 + 172 b7 * b77 + 192 b7 * b78 + 120 b7 * b80 - 132 b7 * b87 
  + 140 b7 * b88 - 104 b7 * b91 - 152 b7 * b92 + 16 b7 * b94 - 96 b7 * b97 + 28 b7 * b98 - 40 b7 * b102 
  + 36 b7 * b114 + 8 b7 * b117 + 188 b7 * b121 + 180 b8 * b16 - 172 b8 * b19 + 148 b8 * b20 + 28 b8 * b23 
  - 192 b8 * b24 + 68 b8 * b25 + 56 b8 * b41 + 40 b8 * b43 - 136 b8 * b47 - 92 b8 * b55 - 112 b8 * b56 
  + 168 b8 * b58 + 88 b8 * b60 - 160 b8 * b62 - 192 b8 * b64 + 28 b8 * b67 - 160 b8 * b71 - 52 b8 * b73 
  + 192 b8 * b76 - 108 b8 * b80 - 152 b8 * b83 - 176 b8 * b84 - 44 b8 * b90 - 92 b8 * b91 + 32 b8 * b92 
  - 200 b8 * b93 + 76 b8 * b101 + 96 b8 * b107 + 108 b8 * b109 + 200 b8 * b113 - 20 b9 * b13 + 20 b9 * b17 
  - 56 b9 * b21 - 136 b9 * b22 + 56 b9 * b24 + 56 b9 * b34 + 36 b9 * b38 - 68 b9 * b39 + 32 b9 * b40 
  - 64 b9 * b43 + 124 b9 * b53 + 136 b9 * b61 - 12 b9 * b62 + 96 b9 * b63 + 28 b9 * b66 + 28 b9 * b69 
  + 136 b9 * b70 - 112 b9 * b71 - 164 b9 * b81 - 160 b9 * b90 - 112 b9 * b101 - 16 b9 * b102 + 48 b9 * b106 
  - 28 b9 * b108 - 20 b9 * b113 - 28 b9 * b114 - 140 b9 * b116 - 24 b9 * b118 + 44 b9 * b121 + 48 b10 * b13 
  - 188 b10 * b16 + 4 b10 * b22 - 56 b10 * b25 + 92 b10 * b26 - 120 b10 * b27 + 120 b10 * b32 + 60 b10 * b33 
  - 64 b10 * b42 + 76 b10 * b47 - 192 b10 * b48 - 4 b10 * b54 + 12 b10 * b56 + 120 b10 * b59 + 24 b10 * b74 
  + 92 b10 * b76 + 44 b10 * b86 - 36 b10 * b89 + 44 b10 * b90 - 4 b10 * b92 + 64 b10 * b93 + 96 b10 * b102 
  + 156 b10 * b103 + 124 b10 * b108 + 20 b10 * b114 - 56 b10 * b116 + 40 b10 * b118 + 108 b10 * b119 
  + 180 b11 * b13 + 160 b11 * b20 + 132 b11 * b22 - 64 b11 * b24 + 36 b11 * b27 + 88 b11 * b30 + 72 b11 * b31 
  - 192 b11 * b33 - 88 b11 * b37 - 52 b11 * b38 + 156 b11 * b44 + 8 b11 * b47 - 52 b11 * b51 + 92 b11 * b52 
  + 180 b11 * b55 - 48 b11 * b57 + 132 b11 * b58 + 188 b11 * b59 - 148 b11 * b66 - 8 b11 * b67 - 96 b11 * b68 
  - 116 b11 * b69 - 160 b11 * b80 - 184 b11 * b81 - 112 b11 * b82 - 24 b11 * b84 + 140 b11 * b87 - 96 b11 * b88 
  - 4 b11 * b91 + 64 b11 * b93 + 60 b11 * b95 + 192 b11 * b96 + 16 b11 * b99 + 24 b11 * b100 - 156 b11 * b101 
  - 172 b11 * b103 - 152 b11 * b110 - 56 b11 * b111 - 172 b11 * b114 + 188 b11 * b116 + 72 b11 * b121 
  + 116 b12 * b14 - 192 b12 * b21 + 80 b12 * b26 + 64 b12 * b36 - 76 b12 * b40 + 168 b12 * b42 + 184 b12 * b47 
  - 64 b12 * b49 + 188 b12 * b50 - 20 b12 * b51 + 88 b12 * b52 + 164 b12 * b54 - 136 b12 * b57 - 12 b12 * b58 
  - 176 b12 * b60 + 4 b12 * b62 - 76 b12 * b63 + 44 b12 * b66 - 168 b12 * b67 - 56 b12 * b69 + 184 b12 * b71 
  + 72 b12 * b75 + 36 b12 * b79 + 36 b12 * b80 - 152 b12 * b85 + 136 b12 * b88 - 196 b12 * b90 + 44 b12 * b94 
  - 24 b12 * b104 - 4 b12 * b105 + 64 b12 * b107 + 200 b12 * b111 - 200 b12 * b113 + 136 b12 * b118 + 72 b12 * b120 
  - 124 b12 * b121 + 4 b13 * b26 - 152 b13 * b32 + 196 b13 * b35 + 132 b13 * b38 + 188 b13 * b41 + 148 b13 * b43 
  + 168 b13 * b45 - 112 b13 * b53 + 28 b13 * b61 - 108 b13 * b65 + 100 b13 * b68 + 72 b13 * b75 + 32 b13 * b78 
  + 172 b13 * b79 - 24 b13 * b87 - 52 b13 * b88 - 100 b13 * b90 + 52 b13 * b94 - 48 b13 * b98 + 196 b13 * b108 
  + 120 b13 * b109 + 184 b13 * b112 - 20 b13 * b113 + 24 b13 * b121 + 144 b14 * b17 + 72 b14 * b24 + 20 b14 * b26 
  - 36 b14 * b30 + 160 b14 * b32 - 184 b14 * b39 - 168 b14 * b41 + 184 b14 * b46 - 160 b14 * b47 + 80 b14 * b48 
  - 28 b14 * b52 - 68 b14 * b56 + 44 b14 * b60 + 140 b14 * b68 + 56 b14 * b71 - 64 b14 * b72 + 156 b14 * b73 
  - 192 b14 * b74 + 168 b14 * b75 + 200 b14 * b82 - 84 b14 * b85 + 180 b14 * b90 - 104 b14 * b91 - 192 b14 * b92 
  + 140 b14 * b93 + 8 b14 * b94 + 56 b14 * b98 + 172 b14 * b99 + 172 b14 * b100 + 104 b14 * b105 - 180 b14 * b114 
  + 48 b14 * b119 + 108 b15 * b18 + 116 b15 * b26 + 100 b15 * b29 + 160 b15 * b31 - 164 b15 * b36 - 88 b15 * b37 
  - 72 b15 * b40 - 180 b15 * b43 - 8 b15 * b44 - 140 b15 * b51 - 52 b15 * b56 - 120 b15 * b58 + 4 b15 * b61 
  - 8 b15 * b62 + 44 b15 * b66 - 164 b15 * b68 - 12 b15 * b72 + 68 b15 * b74 + 108 b15 * b75 + 32 b15 * b78 
  + 112 b15 * b79 + 164 b15 * b80 + 196 b15 * b82 + 60 b15 * b83 + 120 b15 * b93 - 148 b15 * b95 + 136 b15 * b97 
  + 52 b15 * b104 - 100 b15 * b105 - 68 b15 * b110 + 104 b15 * b115 - 180 b15 * b116 + 180 b15 * b120 
  - 196 b16 * b19 - 16 b16 * b20 - 148 b16 * b24 - 88 b16 * b30 - 16 b16 * b32 - 200 b16 * b39 + 64 b16 * b46 
  + 56 b16 * b48 - 4 b16 * b51 + 172 b16 * b53 + 16 b16 * b60 + 24 b16 * b70 + 152 b16 * b72 + 80 b16 * b75 
  + 108 b16 * b82 - 100 b16 * b84 + 20 b16 * b86 + 12 b16 * b88 + 80 b16 * b91 + 68 b16 * b93 + 4 b16 * b103 
  + 72 b16 * b104 + 164 b16 * b109 + 72 b16 * b110 + 100 b16 * b111 - 160 b16 * b114 - 188 b16 * b115 
  + 104 b16 * b119 + 188 b17 * b18 + 128 b17 * b20 + 24 b17 * b21 - 200 b17 * b33 + 160 b17 * b37 - 156 b17 * b38 
  + 188 b17 * b39 - 16 b17 * b42 + 148 b17 * b43 - 156 b17 * b45 - 184 b17 * b49 - 176 b17 * b50 - 64 b17 * b58 
  - 160 b17 * b67 + 4 b17 * b69 + 36 b17 * b73 + 64 b17 * b76 - 100 b17 * b83 - 152 b17 * b87 - 172 b17 * b88 
  - 4 b17 * b89 + 144 b17 * b90 + 100 b17 * b91 + 180 b17 * b95 + 72 b17 * b96 + 188 b17 * b97 + 116 b17 * b121 
  - 96 b18 * b23 - 140 b18 * b25 - 64 b18 * b27 + 28 b18 * b34 + 140 b18 * b36 - 100 b18 * b37 - 8 b18 * b38 
  - 68 b18 * b40 + 40 b18 * b42 - 112 b18 * b43 - 148 b18 * b45 + 116 b18 * b50 - 92 b18 * b55 + 172 b18 * b62 
  - 164 b18 * b63 - 124 b18 * b74 + 8 b18 * b76 + 136 b18 * b77 - 140 b18 * b80 - 180 b18 * b89 - 32 b18 * b91 
  + 116 b18 * b92 + 28 b18 * b93 - 44 b18 * b95 + 180 b18 * b103 + 64 b18 * b105 - 92 b18 * b107 + 4 b18 * b108 
  - 12 b19 * b22 - 108 b19 * b24 + 136 b19 * b28 - 168 b19 * b31 + 12 b19 * b32 - 36 b19 * b36 - 196 b19 * b38 
  + 200 b19 * b39 - 12 b19 * b45 + 68 b19 * b46 - 140 b19 * b47 + 52 b19 * b50 - 172 b19 * b52 + 92 b19 * b55 
  - 36 b19 * b59 - 160 b19 * b61 + 64 b19 * b64 + 116 b19 * b67 + 152 b19 * b68 - 80 b19 * b74 - 36 b19 * b76 
  + 196 b19 * b77 - 60 b19 * b84 - 68 b19 * b90 + 20 b19 * b96 - 64 b19 * b97 - 44 b19 * b98 + 96 b19 * b104 
  + 164 b19 * b110 + 168 b19 * b114 + 80 b19 * b115 - 12 b19 * b117 + 188 b20 * b21 - 144 b20 * b22 + 24 b20 * b25 
  + 36 b20 * b26 + 132 b20 * b30 + 40 b20 * b31 + 36 b20 * b33 - 196 b20 * b34 - 8 b20 * b43 + 32 b20 * b51 
  - 104 b20 * b53 + 40 b20 * b62 + 16 b20 * b68 - 152 b20 * b73 - 176 b20 * b79 - 88 b20 * b81 - 184 b20 * b83 
  - 156 b20 * b84 + 176 b20 * b88 + 184 b20 * b95 + 176 b20 * b99 - 4 b20 * b105 + 128 b20 * b108 - 60 b20 * b110 
  + 16 b21 * b23 + 172 b21 * b31 - 144 b21 * b33 - 124 b21 * b34 - 192 b21 * b40 - 176 b21 * b45 - 80 b21 * b47 
  - 96 b21 * b51 - 48 b21 * b53 + 84 b21 * b55 - 200 b21 * b58 + 88 b21 * b61 - 176 b21 * b64 - 148 b21 * b73 
  + 48 b21 * b76 - 52 b21 * b77 + 168 b21 * b80 + 144 b21 * b82 + 72 b21 * b84 - 156 b21 * b91 - 56 b21 * b97 
  + 76 b21 * b99 + 168 b21 * b102 - 76 b21 * b103 + 112 b21 * b105 + 124 b21 * b106 + 188 b21 * b107 
  + 184 b21 * b109 + 152 b21 * b112 - 88 b21 * b114 + 188 b21 * b116 + 60 b21 * b118 + 12 b21 * b120 
  + 184 b22 * b23 + 48 b22 * b26 + 64 b22 * b28 - 76 b22 * b30 + 148 b22 * b31 + 88 b22 * b39 - 140 b22 * b40 
  + 24 b22 * b42 - 104 b22 * b45 + 132 b22 * b47 + 68 b22 * b48 + 180 b22 * b52 + 48 b22 * b53 - 8 b22 * b55 
  + 28 b22 * b57 + 140 b22 * b58 + 128 b22 * b60 - 140 b22 * b61 - 144 b22 * b66 - 144 b22 * b79 + 196 b22 * b80 
  - 64 b22 * b82 - 136 b22 * b89 + 120 b22 * b94 + 20 b22 * b95 + 188 b22 * b96 - 196 b22 * b99 + 72 b22 * b102 
  - 184 b22 * b110 + 140 b22 * b112 - 20 b22 * b120 + 40 b23 * b24 + 68 b23 * b30 + 124 b23 * b42 + 164 b23 * b43 
  + 112 b23 * b44 + 68 b23 * b50 - 200 b23 * b51 + 144 b23 * b52 + 132 b23 * b53 - 156 b23 * b54 + 80 b23 * b57 
  + 200 b23 * b64 + 16 b23 * b65 + 176 b23 * b67 + 160 b23 * b68 + 184 b23 * b71 - 56 b23 * b72 + 172 b23 * b73 
  + 4 b23 * b81 + 116 b23 * b82 - 108 b23 * b86 + 160 b23 * b88 + 124 b23 * b90 + 112 b23 * b92 - 148 b23 * b96 
  - 16 b23 * b100 + 192 b23 * b101 - 192 b23 * b102 + 80 b23 * b106 + 44 b23 * b107 - 128 b23 * b113 
  - 192 b23 * b114 - 184 b23 * b117 + 176 b24 * b31 - 20 b24 * b32 + 116 b24 * b37 - 24 b24 * b39 + 36 b24 * b41 
  + 176 b24 * b42 - 152 b24 * b43 + 12 b24 * b44 - 132 b24 * b47 + 124 b24 * b49 - 28 b24 * b50 - 136 b24 * b52 
  + 56 b24 * b53 - 56 b24 * b54 + 180 b24 * b55 + 16 b24 * b57 + 84 b24 * b63 - 120 b24 * b65 + 80 b24 * b68 
  + 200 b24 * b69 - 152 b24 * b70 - 20 b24 * b71 - 88 b24 * b72 - 24 b24 * b73 - 164 b24 * b76 + 196 b24 * b79 
  + 104 b24 * b82 - 136 b24 * b84 + 40 b24 * b85 - 152 b24 * b87 + 116 b24 * b89 - 12 b24 * b90 + 120 b24 * b93 
  - 156 b24 * b101 - 76 b24 * b103 - 40 b24 * b106 - 8 b24 * b110 - 72 b24 * b112 - 64 b24 * b115 + 144 b25 * b28 
  - 192 b25 * b41 + 40 b25 * b43 + 108 b25 * b48 - 180 b25 * b49 - 92 b25 * b52 - 196 b25 * b55 - 96 b25 * b63 
  - 44 b25 * b68 + 72 b25 * b69 + 72 b25 * b73 + 156 b25 * b76 + 80 b25 * b82 - 176 b25 * b87 - 104 b25 * b88 
  - 108 b25 * b94 - 140 b25 * b95 - 132 b25 * b98 + 80 b25 * b99 - 48 b25 * b100 + 152 b25 * b102 - 52 b25 * b106 
  - 120 b25 * b108 - 136 b25 * b121 - 16 b26 * b28 + 64 b26 * b33 + 144 b26 * b35 + 176 b26 * b38 - 44 b26 * b43 
  + 184 b26 * b47 - 92 b26 * b48 - 20 b26 * b52 - 96 b26 * b54 + 132 b26 * b57 - 112 b26 * b61 - 52 b26 * b64 
  + 180 b26 * b65 - 152 b26 * b66 - 136 b26 * b68 + 136 b26 * b69 - 104 b26 * b78 - 72 b26 * b80 + 48 b26 * b82 
  + 4 b26 * b87 + 24 b26 * b90 - 104 b26 * b91 + 144 b26 * b93 + 32 b26 * b96 - 104 b26 * b98 - 88 b26 * b99 
  + 128 b26 * b100 + 72 b26 * b106 - 136 b26 * b109 + 124 b26 * b110 + 60 b26 * b111 + 152 b26 * b112 
  - 52 b26 * b114 - 104 b26 * b115 + 92 b27 * b28 - 120 b27 * b29 - 104 b27 * b35 - 192 b27 * b37 + 112 b27 * b39 
  - 104 b27 * b41 - 108 b27 * b43 + 52 b27 * b46 + 104 b27 * b49 + 140 b27 * b55 + 88 b27 * b59 - 184 b27 * b60 
  + 32 b27 * b62 + 8 b27 * b67 - 112 b27 * b69 - 184 b27 * b76 + 96 b27 * b80 + 56 b27 * b81 - 128 b27 * b86 
  - 92 b27 * b93 - 88 b27 * b94 - 36 b27 * b102 - 144 b27 * b103 + 144 b27 * b106 - 200 b27 * b108 - 188 b27 * b110 
  - 164 b27 * b112 - 200 b27 * b113 + 8 b27 * b114 - 40 b28 * b29 + 84 b28 * b38 + 112 b28 * b39 + 136 b28 * b41 
  - 180 b28 * b49 - 128 b28 * b51 + 8 b28 * b52 - 172 b28 * b53 - 68 b28 * b54 + 40 b28 * b56 + 96 b28 * b57 
  + 44 b28 * b58 - 72 b28 * b59 + 140 b28 * b60 - 152 b28 * b62 + 132 b28 * b63 - 148 b28 * b64 - 96 b28 * b73 
  - 108 b28 * b75 + 120 b28 * b79 - 144 b28 * b81 + 80 b28 * b84 + 64 b28 * b87 - 200 b28 * b89 + 40 b28 * b91 
  - 124 b28 * b92 - 80 b28 * b93 - 56 b28 * b94 - 36 b28 * b99 - 100 b28 * b103 + 196 b28 * b105 - 184 b28 * b107 
  + 88 b28 * b108 + 84 b28 * b110 + 84 b28 * b111 - 40 b28 * b113 - 104 b28 * b115 - 88 b28 * b118 - 112 b28 * b121 
  + 44 b29 * b32 + 84 b29 * b33 - 32 b29 * b35 + 68 b29 * b36 - 84 b29 * b40 - 52 b29 * b42 + 84 b29 * b43 
  + 120 b29 * b48 + 196 b29 * b50 - 140 b29 * b51 - 108 b29 * b52 + 188 b29 * b59 - 76 b29 * b60 - 12 b29 * b61 
  - 32 b29 * b70 - 68 b29 * b71 + 100 b29 * b72 + 92 b29 * b75 + 164 b29 * b76 - 168 b29 * b78 - 104 b29 * b79 
  + 76 b29 * b92 - 4 b29 * b99 + 68 b29 * b100 + 192 b29 * b109 - 36 b29 * b113 + 152 b29 * b114 - 32 b29 * b115 
  - 56 b30 * b32 + 192 b30 * b35 + 24 b30 * b36 - 76 b30 * b37 + 16 b30 * b42 - 172 b30 * b45 - 100 b30 * b50 
  + 160 b30 * b51 + 144 b30 * b57 + 40 b30 * b59 + 148 b30 * b60 - 64 b30 * b67 - 140 b30 * b72 - 72 b30 * b73 
  - 36 b30 * b77 + 56 b30 * b78 - 88 b30 * b79 - 148 b30 * b80 + 128 b30 * b81 - 96 b30 * b84 - 172 b30 * b85 
  + 100 b30 * b97 - 156 b30 * b98 - 124 b30 * b100 + 160 b30 * b101 - 156 b30 * b103 + 124 b30 * b105 
  - 92 b30 * b111 + 96 b30 * b112 + 68 b31 * b36 - 68 b31 * b40 + 136 b31 * b46 + 72 b31 * b51 - 188 b31 * b52 
  + 188 b31 * b59 - 140 b31 * b66 + 44 b31 * b71 - 176 b31 * b74 + 184 b31 * b75 - 24 b31 * b76 + 24 b31 * b80 
  + 128 b31 * b85 - 72 b31 * b87 - 68 b31 * b92 + 72 b31 * b96 + 16 b31 * b98 + 88 b31 * b101 - 80 b31 * b103 
  + 172 b31 * b109 + 68 b31 * b117 - 60 b31 * b119 - 96 b31 * b121 - 136 b32 * b34 - 20 b32 * b38 - 164 b32 * b41 
  + 108 b32 * b42 - 136 b32 * b44 - 68 b32 * b50 - 172 b32 * b51 - 68 b32 * b54 + 180 b32 * b59 + 172 b32 * b60 
  - 56 b32 * b62 - 144 b32 * b65 + 72 b32 * b67 + 4 b32 * b68 - 156 b32 * b70 + 124 b32 * b72 + 100 b32 * b75 
  + 4 b32 * b78 - 112 b32 * b80 + 44 b32 * b83 + 72 b32 * b87 - 68 b32 * b89 + 120 b32 * b93 + 104 b32 * b94 
  - 72 b32 * b97 + 64 b32 * b101 - 116 b32 * b106 - 96 b32 * b108 + 68 b32 * b116 + 108 b32 * b119 + 200 b32 * b120 
  + 96 b33 * b34 - 164 b33 * b39 + 140 b33 * b42 + 176 b33 * b43 - 80 b33 * b47 - 84 b33 * b50 - 96 b33 * b52 
  + 72 b33 * b69 + 140 b33 * b76 + 152 b33 * b77 + 4 b33 * b81 - 24 b33 * b83 - 156 b33 * b87 + 60 b33 * b91 
  + 128 b33 * b99 - 120 b33 * b100 - 196 b33 * b109 + 124 b33 * b114 + 176 b33 * b115 + 48 b33 * b118 
  - 192 b33 * b121 - 116 b34 * b36 - 148 b34 * b43 + 48 b34 * b45 + 36 b34 * b46 - 188 b34 * b48 - 20 b34 * b49 
  - 160 b34 * b53 + 4 b34 * b60 - 164 b34 * b61 - 184 b34 * b64 + 100 b34 * b69 - 172 b34 * b72 - 88 b34 * b75 
  + 28 b34 * b77 + 196 b34 * b78 - 28 b34 * b80 + 160 b34 * b81 - 168 b34 * b85 + 88 b34 * b87 + 144 b34 * b93 
  + 92 b34 * b97 + 96 b34 * b99 - 60 b34 * b103 + 200 b34 * b111 + 76 b34 * b115 + 196 b34 * b117 + 180 b34 * b121 
  - 124 b35 * b36 + 64 b35 * b45 - 24 b35 * b46 - 112 b35 * b47 - 116 b35 * b50 - 64 b35 * b56 + 4 b35 * b69 
  + 104 b35 * b73 + 16 b35 * b77 + 84 b35 * b79 + 40 b35 * b82 - 80 b35 * b98 + 184 b35 * b99 + 116 b35 * b101 
  + 52 b35 * b102 - 88 b35 * b108 - 24 b35 * b114 + 24 b35 * b117 + 136 b36 * b37 - 80 b36 * b42 + 76 b36 * b43 
  - 36 b36 * b44 + 64 b36 * b48 + 20 b36 * b50 + 64 b36 * b57 - 124 b36 * b58 - 112 b36 * b59 + 136 b36 * b60 
  - 76 b36 * b61 - 152 b36 * b66 + 40 b36 * b68 - 68 b36 * b69 - 32 b36 * b74 - 80 b36 * b79 - 28 b36 * b84 
  - 12 b36 * b89 + 64 b36 * b94 + 176 b36 * b100 + 144 b36 * b103 - 200 b36 * b105 + 104 b36 * b114 + 68 b36 * b119 
  - 140 b36 * b120 + 28 b37 * b39 - 148 b37 * b42 + 176 b37 * b44 - 144 b37 * b45 + 116 b37 * b48 - 12 b37 * b49 
  - 188 b37 * b50 - 36 b37 * b51 - 8 b37 * b55 + 28 b37 * b56 - 28 b37 * b64 - 104 b37 * b70 + 32 b37 * b71 
  - 144 b37 * b73 - 12 b37 * b76 + 108 b37 * b81 + 140 b37 * b93 - 84 b37 * b97 - 128 b37 * b100 + 44 b37 * b107 
  + 108 b37 * b111 - 32 b37 * b115 + 188 b38 * b39 + 108 b38 * b43 - 116 b38 * b44 + 76 b38 * b46 - 76 b38 * b51 
  - 108 b38 * b55 + 28 b38 * b57 - 64 b38 * b58 + 188 b38 * b61 - 132 b38 * b63 - 28 b38 * b69 - 116 b38 * b72 
  + 16 b38 * b74 - 64 b38 * b77 - 104 b38 * b80 + 96 b38 * b82 - 76 b38 * b83 - 156 b38 * b86 - 92 b38 * b90 
  - 84 b38 * b91 + 136 b38 * b99 + 144 b38 * b107 - 20 b38 * b109 - 76 b38 * b111 - 196 b38 * b113 - 56 b38 * b116 
  + 88 b38 * b119 - 148 b38 * b120 - 80 b39 * b41 - 24 b39 * b44 - 136 b39 * b47 + 100 b39 * b52 + 4 b39 * b53 
  + 76 b39 * b64 - 20 b39 * b73 + 112 b39 * b78 - 84 b39 * b79 - 52 b39 * b83 + 116 b39 * b85 + 100 b39 * b92 
  - 100 b39 * b96 + 96 b39 * b103 - 8 b39 * b109 + 100 b39 * b110 + 40 b39 * b112 + 144 b39 * b120 - 172 b40 * b41 
  + 12 b40 * b47 + 44 b40 * b54 + 52 b40 * b59 + 136 b40 * b60 - 84 b40 * b62 + 80 b40 * b63 + 104 b40 * b66 
  - 48 b40 * b70 - 156 b40 * b72 + 164 b40 * b75 + 152 b40 * b84 - 64 b40 * b86 + 88 b40 * b87 - 40 b40 * b88 
  + 20 b40 * b89 - 120 b40 * b91 + 120 b40 * b93 + 76 b40 * b95 + 160 b40 * b97 - 192 b40 * b103 - 52 b40 * b104 
  - 132 b40 * b106 + 176 b40 * b109 - 180 b41 * b43 - 96 b41 * b47 + 64 b41 * b48 - 68 b41 * b50 + 8 b41 * b53 
  + 28 b41 * b61 + 128 b41 * b64 + 24 b41 * b76 + 16 b41 * b81 + 200 b41 * b85 - 160 b41 * b86 - 128 b41 * b90 
  - 148 b41 * b93 + 184 b41 * b94 + 192 b41 * b96 - 104 b41 * b103 - 88 b41 * b106 - 36 b41 * b107 + 112 b41 * b116 
  - 68 b41 * b117 + 100 b41 * b119 + 84 b42 * b43 - 8 b42 * b44 + 180 b42 * b45 - 192 b42 * b49 + 36 b42 * b57 
  + 88 b42 * b60 + 152 b42 * b62 - 104 b42 * b66 + 104 b42 * b67 - 160 b42 * b68 + 92 b42 * b69 + 132 b42 * b72 
  + 168 b42 * b73 - 188 b42 * b76 - 112 b42 * b78 + 136 b42 * b81 - 92 b42 * b82 + 120 b42 * b84 - 40 b42 * b85 
  - 76 b42 * b86 - 132 b42 * b89 - 64 b42 * b90 - 180 b42 * b95 - 52 b42 * b99 - 40 b42 * b100 - 72 b42 * b101 
  - 160 b42 * b102 + 88 b42 * b106 + 44 b42 * b108 - 52 b42 * b110 - 176 b42 * b113 + 44 b42 * b114 - 144 b43 * b45 
  - 176 b43 * b46 - 104 b43 * b49 + 188 b43 * b53 + 16 b43 * b54 - 120 b43 * b59 - 192 b43 * b62 + 92 b43 * b64 
  - 168 b43 * b70 + 48 b43 * b73 - 24 b43 * b80 - 128 b43 * b82 + 8 b43 * b87 + 176 b43 * b89 - 44 b43 * b92 
  + 48 b43 * b98 - 52 b43 * b101 - 20 b43 * b102 + 28 b43 * b116 - 128 b43 * b117 + 24 b44 * b52 + 140 b44 * b62 
  + 96 b44 * b64 - 40 b44 * b68 + 200 b44 * b71 + 100 b44 * b73 - 76 b44 * b74 - 180 b44 * b76 - 196 b44 * b80 
  + 180 b44 * b82 - 56 b44 * b85 - 88 b44 * b90 + 92 b44 * b91 - 120 b44 * b102 - 112 b44 * b103 - 76 b44 * b104 
  + 156 b44 * b113 - 168 b44 * b115 - 12 b44 * b117 - 36 b44 * b119 - 172 b44 * b120 - 200 b45 * b48 
  + 8 b45 * b51 - 80 b45 * b52 - 36 b45 * b54 + 40 b45 * b56 + 120 b45 * b57 + 168 b45 * b62 + 40 b45 * b73 
  + 140 b45 * b74 + 192 b45 * b76 + 116 b45 * b81 - 192 b45 * b84 - 40 b45 * b86 + 156 b45 * b87 + 84 b45 * b90 
  + 116 b45 * b92 + 184 b45 * b96 + 4 b45 * b102 + 144 b45 * b103 - 68 b45 * b108 + 56 b45 * b110 + 144 b45 * b112 
  - 76 b45 * b113 - 104 b45 * b114 - 68 b45 * b121 + 4 b46 * b52 + 72 b46 * b55 - 124 b46 * b58 + 132 b46 * b59 
  + 156 b46 * b60 - 196 b46 * b61 + 108 b46 * b68 - 140 b46 * b70 + 108 b46 * b71 - 4 b46 * b72 + 168 b46 * b75 
  + 104 b46 * b77 - 76 b46 * b83 + 184 b46 * b85 + 64 b46 * b87 + 112 b46 * b89 - 140 b46 * b90 + 148 b46 * b92 
  + 16 b46 * b95 - 100 b46 * b101 - 92 b46 * b107 - 104 b46 * b108 + 132 b46 * b111 + 136 b46 * b113 
  - 136 b46 * b114 + 112 b46 * b120 + 52 b47 * b48 + 152 b47 * b49 - 100 b47 * b53 + 176 b47 * b54 - 180 b47 * b57 
  + 152 b47 * b58 - 184 b47 * b60 + 112 b47 * b62 - 196 b47 * b63 + 160 b47 * b70 + 40 b47 * b77 + 100 b47 * b81 
  - 180 b47 * b82 + 156 b47 * b85 - 156 b47 * b86 - 136 b47 * b87 - 152 b47 * b91 - 88 b47 * b94 - 200 b47 * b99 
  + 164 b47 * b101 + 100 b47 * b107 - 76 b47 * b112 + 48 b47 * b115 + 68 b47 * b116 - 180 b48 * b51 - 168 b48 * b57 
  + 72 b48 * b61 + 88 b48 * b64 - 28 b48 * b79 - 180 b48 * b87 + 124 b48 * b89 - 84 b48 * b92 + 152 b48 * b96 
  - 140 b48 * b98 - 160 b48 * b101 - 176 b48 * b105 - 28 b48 * b107 - 168 b48 * b109 - 148 b48 * b113 
  - 92 b48 * b118 + 40 b48 * b120 - 8 b49 * b50 - 52 b49 * b54 + 64 b49 * b57 + 24 b49 * b61 + 52 b49 * b65 
  - 52 b49 * b70 + 64 b49 * b72 + 52 b49 * b73 - 140 b49 * b74 + 68 b49 * b78 + 200 b49 * b81 + 60 b49 * b85 
  + 60 b49 * b89 + 40 b49 * b94 + 68 b49 * b96 + 60 b49 * b97 + 188 b49 * b101 - 60 b49 * b102 - 176 b49 * b107 
  - 56 b49 * b110 + 128 b49 * b113 - 96 b49 * b114 - 156 b49 * b119 + 80 b50 * b51 - 156 b50 * b53 - 108 b50 * b54 
  + 72 b50 * b57 + 36 b50 * b60 + 64 b50 * b61 + 188 b50 * b63 + 68 b50 * b64 + 112 b50 * b67 - 88 b50 * b74 
  + 152 b50 * b84 - 172 b50 * b86 + 4 b50 * b87 + 184 b50 * b91 + 176 b50 * b92 - 112 b50 * b95 - 112 b50 * b100 
  - 132 b50 * b104 + 164 b50 * b106 + 64 b50 * b108 - 192 b50 * b111 - 52 b50 * b118 - 152 b50 * b121 
  + 164 b51 * b54 - 180 b51 * b55 - 4 b51 * b63 - 68 b51 * b66 + 64 b51 * b72 + 192 b51 * b74 - 104 b51 * b77 
  - 64 b51 * b78 - 176 b51 * b87 + 200 b51 * b88 - 40 b51 * b89 - 164 b51 * b93 - 112 b51 * b97 - 76 b51 * b101 
  + 12 b51 * b113 - 72 b51 * b115 + 32 b52 * b62 - 124 b52 * b63 + 180 b52 * b65 + 180 b52 * b67 + 128 b52 * b71 
  - 124 b52 * b83 - 24 b52 * b85 - 12 b52 * b86 - 48 b52 * b87 + 52 b52 * b101 - 4 b52 * b102 + 104 b52 * b112 
  + 84 b52 * b116 + 76 b53 * b55 + 52 b53 * b61 - 164 b53 * b62 + 176 b53 * b67 + 72 b53 * b73 - 144 b53 * b78 
  - 128 b53 * b82 + 176 b53 * b85 + 68 b53 * b87 + 148 b53 * b88 - 192 b53 * b93 + 88 b53 * b95 - 68 b53 * b96 
  - 48 b53 * b97 - 84 b53 * b105 + 72 b53 * b106 - 60 b53 * b108 - 104 b53 * b111 + 88 b53 * b112 + 120 b53 * b114 
  + 172 b53 * b118 + 140 b54 * b57 + 168 b54 * b58 - 196 b54 * b60 - 32 b54 * b72 - 4 b54 * b74 - 152 b54 * b76 
  + 72 b54 * b78 - 60 b54 * b82 + 200 b54 * b84 - 180 b54 * b85 + 120 b54 * b88 - 56 b54 * b93 - 168 b54 * b97 
  - 80 b54 * b99 + 68 b54 * b101 - 192 b54 * b103 + 108 b54 * b105 + 168 b54 * b108 - 172 b54 * b109 
  - 28 b54 * b114 + 24 b54 * b120 - 4 b55 * b57 - 152 b55 * b60 + 4 b55 * b61 - 28 b55 * b68 + 164 b55 * b69 
  - 108 b55 * b75 - 84 b55 * b76 + 64 b55 * b79 + 156 b55 * b83 - 8 b55 * b89 - 124 b55 * b93 - 84 b55 * b102 
  - 8 b55 * b103 + 12 b55 * b105 - 200 b55 * b109 - 8 b55 * b111 - 100 b55 * b117 + 4 b56 * b62 - 196 b56 * b65 
  - 12 b56 * b69 - 144 b56 * b70 + 88 b56 * b71 - 172 b56 * b76 + 120 b56 * b79 + 56 b56 * b83 - 92 b56 * b88 
  + 200 b56 * b92 - 148 b56 * b93 - 120 b56 * b94 - 32 b56 * b95 + 96 b56 * b104 - 184 b56 * b105 + 168 b56 * b106 
  - 64 b56 * b107 + 156 b56 * b110 + 48 b56 * b114 - 184 b56 * b115 - 12 b56 * b117 - 96 b56 * b121 + 188 b57 * b59 
  - 100 b57 * b60 - 176 b57 * b63 + 44 b57 * b69 + 16 b57 * b74 + 124 b57 * b76 - 120 b57 * b77 + 164 b57 * b79 
  + 132 b57 * b88 - 20 b57 * b90 - 16 b57 * b93 + 32 b57 * b98 + 160 b57 * b99 - 108 b57 * b101 + 144 b57 * b103 
  - 196 b57 * b105 - 16 b57 * b115 - 200 b57 * b117 + 52 b57 * b121 - 156 b58 * b71 + 48 b58 * b75 - 132 b58 * b76 
  + 64 b58 * b77 - 52 b58 * b80 - 28 b58 * b82 - 188 b58 * b86 - 128 b58 * b87 + 36 b58 * b92 - 120 b58 * b98 
  + 64 b58 * b100 - 124 b58 * b102 + 32 b58 * b105 + 164 b58 * b108 - 100 b58 * b110 - 12 b58 * b112 
  - 44 b58 * b113 + 12 b58 * b117 + 72 b58 * b118 - 68 b58 * b119 - 164 b59 * b66 + 116 b59 * b67 + 68 b59 * b68 
  + 184 b59 * b74 - 56 b59 * b77 - 104 b59 * b78 + 168 b59 * b79 - 176 b59 * b83 + 4 b59 * b84 - 36 b59 * b85 
  - 8 b59 * b87 - 164 b59 * b88 - 128 b59 * b99 + 4 b59 * b102 + 40 b59 * b107 + 28 b59 * b108 + 72 b59 * b109 
  - 128 b59 * b116 - 20 b59 * b117 - 76 b59 * b120 + 48 b60 * b61 - 164 b60 * b68 - 24 b60 * b70 - 124 b60 * b72 
  + 184 b60 * b78 - 180 b60 * b82 + 160 b60 * b83 - 128 b60 * b87 + 68 b60 * b88 - 36 b60 * b90 + 192 b60 * b92 
  + 120 b60 * b97 - 140 b60 * b101 + 112 b60 * b102 + 164 b60 * b110 + 144 b60 * b111 + 156 b60 * b117 
  - 108 b60 * b118 - 188 b60 * b119 - 112 b60 * b120 + 156 b61 * b62 - 156 b61 * b63 + 40 b61 * b70 + 128 b61 * b71 
  + 192 b61 * b72 - 28 b61 * b73 - 112 b61 * b80 + 4 b61 * b81 + 148 b61 * b91 + 160 b61 * b92 - 16 b61 * b95 
  + 108 b61 * b100 + 72 b61 * b101 - 84 b61 * b102 - 48 b61 * b110 + 48 b62 * b65 - 132 b62 * b68 + 84 b62 * b70 
  + 180 b62 * b74 + 144 b62 * b75 - 176 b62 * b76 - 104 b62 * b81 + 124 b62 * b83 - 196 b62 * b86 + 96 b62 * b88 
  + 28 b62 * b92 - 152 b62 * b93 - 84 b62 * b97 - 196 b62 * b101 - 116 b62 * b103 - 80 b62 * b104 - 152 b62 * b106 
  - 40 b62 * b109 - 188 b62 * b110 - 40 b62 * b113 + 140 b62 * b114 + 160 b62 * b115 + 196 b63 * b66 
  - 200 b63 * b68 + 16 b63 * b69 + 136 b63 * b70 + 28 b63 * b72 + 64 b63 * b75 - 108 b63 * b77 - 100 b63 * b85 
  - 12 b63 * b87 + 68 b63 * b90 - 88 b63 * b92 + 4 b63 * b95 - 116 b63 * b102 - 32 b63 * b106 - 172 b63 * b108 
  - 28 b63 * b110 + 160 b63 * b115 + 24 b63 * b116 + 188 b63 * b118 - 192 b63 * b120 - 88 b64 * b71 - 132 b64 * b73 
  + 184 b64 * b75 - 132 b64 * b77 - 168 b64 * b82 + 148 b64 * b89 - 200 b64 * b90 - 120 b64 * b92 + 132 b64 * b101 
  - 44 b64 * b102 - 128 b64 * b104 + 168 b64 * b108 + 164 b64 * b113 + 96 b64 * b115 + 140 b64 * b118 
  - 176 b64 * b120 + 36 b65 * b69 + 152 b65 * b74 - 64 b65 * b77 - 36 b65 * b85 - 44 b65 * b92 - 184 b65 * b93 
  - 188 b65 * b95 + 136 b65 * b98 - 68 b65 * b104 + 184 b65 * b109 + 136 b65 * b113 + 56 b66 * b71 + 124 b66 * b77 
  + 36 b66 * b80 + 40 b66 * b82 + 68 b66 * b83 - 24 b66 * b87 + 44 b66 * b88 - 36 b66 * b90 - 100 b66 * b94 
  - 32 b66 * b96 + 128 b66 * b97 + 72 b66 * b105 + 4 b66 * b109 - 8 b66 * b112 + 188 b66 * b115 - 116 b66 * b121 
  - 68 b67 * b70 + 124 b67 * b80 - 24 b67 * b81 - 192 b67 * b87 - 164 b67 * b92 - 60 b67 * b97 - 20 b67 * b102 
  + 52 b67 * b114 + 100 b68 * b69 - 16 b68 * b71 - 120 b68 * b74 + 132 b68 * b87 - 136 b68 * b91 - 40 b68 * b94 
  - 184 b68 * b97 + 48 b68 * b99 - 52 b68 * b102 + 160 b68 * b104 - 36 b68 * b105 + 132 b68 * b106 - 180 b68 * b108 
  - 120 b68 * b110 - 144 b68 * b115 - 8 b68 * b120 + 200 b69 * b75 + 76 b69 * b76 + 128 b69 * b79 + 152 b69 * b84 
  + 56 b69 * b85 + 68 b69 * b90 + 4 b69 * b92 + 80 b69 * b104 - 188 b69 * b111 - 24 b69 * b112 - 28 b69 * b116 
  + 196 b69 * b119 + 132 b69 * b120 + 156 b69 * b121 + 28 b70 * b74 - 24 b70 * b75 - 4 b70 * b77 - 28 b70 * b81 
  + 8 b70 * b82 - 36 b70 * b83 - 180 b70 * b88 - 128 b70 * b89 - 140 b70 * b90 - 116 b70 * b91 + 52 b70 * b95 
  - 176 b70 * b104 - 180 b70 * b106 + 32 b70 * b107 + 196 b70 * b113 - 120 b70 * b114 - 68 b70 * b115 
  - 168 b70 * b117 - 180 b70 * b120 + 80 b71 * b76 - 12 b71 * b78 - 120 b71 * b79 - 16 b71 * b81 - 16 b71 * b82 
  - 20 b71 * b84 - 164 b71 * b87 - 136 b71 * b93 + 92 b71 * b94 + 84 b71 * b95 + 8 b71 * b103 - 64 b71 * b109 
  - 16 b71 * b111 - 24 b71 * b113 + 56 b71 * b118 + 104 b71 * b120 - 32 b71 * b121 + 140 b72 * b76 - 140 b72 * b91 
  - 72 b72 * b95 + 96 b72 * b99 - 156 b72 * b110 - 144 b72 * b114 - 160 b72 * b121 - 104 b73 * b77 + 4 b73 * b78 
  - 64 b73 * b81 + 168 b73 * b82 + 16 b73 * b89 + 128 b73 * b92 - 92 b73 * b95 + 168 b73 * b99 - 164 b73 * b101 
  - 60 b73 * b102 - 96 b73 * b104 + 192 b73 * b105 - 200 b73 * b113 - 136 b73 * b114 + 32 b73 * b120 
  + 116 b74 * b77 - 92 b74 * b78 + 124 b74 * b84 + 36 b74 * b85 - 112 b74 * b90 - 60 b74 * b91 - 120 b74 * b93 
  - 176 b74 * b97 - 56 b74 * b99 - 136 b74 * b100 - 56 b74 * b109 + 20 b74 * b110 - 168 b74 * b115 - 132 b74 * b116 
  + 120 b75 * b77 + 68 b75 * b79 - 192 b75 * b81 + 8 b75 * b93 + 200 b75 * b94 + 100 b75 * b98 + 96 b75 * b101 
  - 120 b75 * b102 + 60 b75 * b103 - 64 b75 * b111 + 12 b75 * b114 - 164 b75 * b115 - 8 b76 * b80 + 84 b76 * b81 
  + 36 b76 * b86 + 124 b76 * b92 + 48 b76 * b95 + 144 b76 * b99 - 104 b76 * b102 + 40 b76 * b103 + 28 b76 * b108 
  + 16 b76 * b109 - 28 b76 * b111 - 168 b76 * b113 + 28 b76 * b114 + 8 b76 * b115 + 44 b76 * b116 + 28 b76 * b121 
  - 72 b77 * b84 - 8 b77 * b87 + 24 b77 * b88 - 136 b77 * b90 - 16 b77 * b91 + 60 b77 * b92 - 68 b77 * b95 
  + 160 b77 * b101 + 104 b77 * b102 + 92 b77 * b107 - 168 b77 * b113 + 112 b77 * b114 + 20 b77 * b121 
  - 132 b78 * b83 + 172 b78 * b85 + 120 b78 * b89 + 88 b78 * b92 - 152 b78 * b93 + 180 b78 * b96 + 8 b78 * b112 
  - 64 b78 * b114 + 96 b78 * b115 - 100 b78 * b116 + 164 b78 * b119 - 16 b78 * b121 - 12 b79 * b80 + 164 b79 * b83 
  + 52 b79 * b87 - 180 b79 * b94 - 72 b79 * b102 - 72 b79 * b104 - 96 b79 * b107 - 84 b79 * b108 - 28 b79 * b110 
  - 24 b79 * b117 - 52 b79 * b119 - 120 b80 * b81 - 96 b80 * b89 - 132 b80 * b91 + 56 b80 * b97 + 160 b80 * b104 
  + 176 b80 * b112 - 80 b80 * b113 + 20 b80 * b114 - 180 b80 * b120 + 88 b81 * b86 + 8 b81 * b88 - 40 b81 * b91 
  - 60 b81 * b94 - 124 b81 * b97 - 96 b81 * b99 + 120 b81 * b112 + 172 b81 * b118 - 192 b82 * b84 - 184 b82 * b85 
  - 84 b82 * b93 + 16 b82 * b99 + 68 b82 * b103 - 104 b82 * b105 - 48 b82 * b107 + 60 b82 * b113 + 80 b82 * b116 
  - 32 b82 * b120 + 184 b83 * b86 + 128 b83 * b90 - 156 b83 * b91 - 64 b83 * b93 + 148 b83 * b95 + 32 b83 * b96 
  + 176 b83 * b101 + 136 b83 * b102 + 88 b83 * b103 + 76 b83 * b104 + 148 b83 * b105 - 48 b83 * b108 
  + 140 b83 * b109 - 96 b83 * b110 + 32 b83 * b111 + 172 b83 * b114 - 4 b83 * b116 + 148 b83 * b117 - 16 b84 * b87 
  - 100 b84 * b88 - 44 b84 * b92 - 84 b84 * b94 - 176 b84 * b95 + 104 b84 * b98 + 44 b84 * b99 - 80 b84 * b105 
  + 76 b84 * b106 + 188 b84 * b115 + 148 b84 * b116 + 44 b84 * b119 - 48 b85 * b89 - 168 b85 * b95 + 12 b85 * b98 
  + 72 b85 * b102 - 64 b85 * b105 + 192 b85 * b109 - 156 b85 * b118 - 148 b86 * b88 + 152 b86 * b91 + 148 b86 * b98 
  + 140 b86 * b99 - 192 b86 * b100 + 16 b86 * b101 + 112 b86 * b103 + 192 b86 * b105 - 156 b86 * b112 
  - 180 b86 * b115 + 164 b86 * b117 + 132 b86 * b119 + 20 b87 * b88 + 180 b87 * b92 - 76 b87 * b96 + 132 b87 * b97 
  + 176 b87 * b99 - 128 b87 * b109 - 8 b87 * b115 + 196 b87 * b119 - 172 b88 * b91 + 72 b88 * b96 + 44 b88 * b98 
  + 172 b88 * b99 + 48 b88 * b100 + 64 b88 * b102 - 160 b88 * b105 + 4 b88 * b110 - 56 b88 * b116 - 32 b88 * b121 
  + 76 b89 * b101 - 68 b89 * b102 - 140 b89 * b107 - 156 b89 * b109 - 148 b89 * b110 + 156 b89 * b114 
  - 108 b89 * b115 + 84 b89 * b116 + 32 b90 * b93 + 8 b90 * b94 + 48 b90 * b98 + 192 b90 * b102 - 96 b90 * b103 
  + 200 b90 * b105 + 104 b90 * b112 - 132 b90 * b113 - 52 b90 * b115 + 180 b90 * b120 + 108 b91 * b95 
  + 12 b91 * b96 + 96 b91 * b97 + 160 b91 * b99 + 192 b91 * b100 + 36 b91 * b119 + 192 b91 * b121 - 184 b92 * b95 
  + 36 b92 * b98 - 160 b92 * b104 - 108 b92 * b106 + 96 b92 * b109 + 52 b92 * b114 - 192 b92 * b116 - 44 b92 * b118 
  + 52 b92 * b120 - 80 b93 * b95 - 196 b93 * b98 - 40 b93 * b99 + 56 b93 * b103 - 160 b93 * b106 + 12 b93 * b110 
  + 184 b93 * b113 + 180 b93 * b115 - 100 b93 * b118 - 72 b93 * b121 + 60 b94 * b98 + 52 b94 * b100 + 124 b94 * b101 
  - 88 b94 * b102 - 56 b94 * b109 - 140 b94 * b110 + 160 b94 * b114 - 76 b94 * b118 + 88 b94 * b120 - 84 b95 * b98 
  - 56 b95 * b102 + 184 b95 * b103 - 180 b95 * b106 - 20 b95 * b108 + 12 b95 * b111 + 120 b95 * b113 
  - 64 b95 * b119 - 24 b95 * b121 - 40 b96 * b97 + 116 b96 * b100 + 188 b96 * b101 + 164 b96 * b109 + 100 b96 * b110 
  + 180 b96 * b112 - 52 b96 * b119 + 140 b96 * b121 + 80 b97 * b98 - 52 b97 * b101 + 12 b97 * b104 + 12 b97 * b105 
  + 52 b97 * b109 + 96 b97 * b110 - 4 b97 * b115 - 52 b97 * b117 + 200 b97 * b119 + 144 b98 * b103 - 108 b98 * b105 
  + 32 b98 * b109 + 108 b98 * b110 + 8 b98 * b112 - 104 b98 * b116 + 132 b98 * b117 + 128 b99 * b100 
  - 44 b99 * b101 - 112 b99 * b103 + 84 b99 * b104 - 40 b99 * b106 + 152 b99 * b107 - 188 b99 * b110 
  + 128 b99 * b117 - 172 b99 * b119 - 92 b100 * b104 - 180 b100 * b110 + 72 b100 * b114 - 96 b100 * b115 
  + 28 b100 * b119 + 144 b101 * b105 - 32 b101 * b107 + 52 b101 * b108 + 168 b101 * b109 + 8 b101 * b110 
  + 56 b101 * b112 + 48 b101 * b116 + 80 b101 * b119 - 76 b101 * b121 - 56 b102 * b103 + 184 b102 * b107 
  - 184 b102 * b108 + 16 b102 * b110 + 72 b102 * b114 + 24 b102 * b115 - 144 b102 * b117 - 28 b103 * b107 
  - 32 b103 * b108 + 80 b103 * b113 - 108 b103 * b115 + 56 b103 * b118 + 8 b103 * b120 + 176 b104 * b105 
  + 184 b104 * b110 - 24 b104 * b113 - 188 b104 * b115 - 148 b104 * b120 + 132 b105 * b110 - 108 b105 * b111 
  - 76 b105 * b113 - 96 b105 * b114 + 196 b105 * b116 + 48 b105 * b120 + 20 b106 * b108 + 192 b106 * b109 
  - 56 b106 * b111 + 24 b106 * b114 + 168 b106 * b115 + 48 b106 * b118 + 84 b107 * b110 - 116 b107 * b111 
  - 196 b107 * b116 - 24 b107 * b117 + 88 b107 * b118 - 84 b107 * b119 + 44 b108 * b110 + 136 b108 * b112 
  + 168 b108 * b121 + 4 b109 * b110 - 36 b109 * b117 + 144 b109 * b119 - 108 b109 * b120 - 96 b110 * b111 
  - 32 b110 * b114 - 56 b111 * b112 + 4 b111 * b114 - 36 b112 * b113 - 148 b112 * b114 + 188 b112 * b115 
  - 36 b112 * b116 - 48 b112 * b117 - 48 b112 * b118 + 140 b112 * b121 + 120 b113 * b115 + 156 b113 * b117 
  + 44 b114 * b116 - 148 b114 * b118 - 60 b115 * b116 + 168 b115 * b120 - 188 b115 * b121 + 196 b116 * b117 
  - 188 b116 * b118 + 88 b117 * b118 + 100 b117 * b121 - 28 b118 * b120 - 156 b119 * b121 ]/2

Subject To

Binary
 b2 b3 b4 b5 b6 b7 b8 b9 b10 b11 b12 b13 b14 b15 b16 b17 b18 b19 b20 b21 b22 b23 b24 b25 b26
 b27 b28 b29 b30 b31 b32 b33 b34 b35 b36 b37 b38 b39 b40 b41 b42 b43 b44 b45 b46 b47 b48 b49
 b50 b51 b52 b53 b54 b55 b56 b57 b58 b59 b60 b61 b62 b63 b64 b65 b66 b67 b68 b69 b70 b71 b72
 b73 b74 b75 b76 b77 b78 b79 b80 b81 b82 b83 b84 b85 b86 b87 b88 b89 b90 b91 b92 b93 b94 b95
 b96 b97 b98 b99 b100 b101 b102 b103 b104 b105 b106 b107 b108 b109 b110 b111 b112 b113 b114
 b115 b116 b117 b118 b119 b120 b121

End
